120
21,13
22,19
23,24
24,20
25,23
27,24
28,15
29,5
30,24
31,16
33,12
35,24
36,16
39,4
40,20
41,24
42,6
43,14
44,21
45,20
46,24
47,2
48,11
50,26
51,23
54,25
56,8
57,16
58,10
61,14
62,6
63,19
64,18
65,11
66,27
67,16
